SDVRP instances/custom_instances/p10_15_split0.vrp
NAME:p10_15_split
BEST_KNOWN: 0
COMMENT: 0
DIMENSION: 954
CAPACITY: 200
EDGE_WEIGHT_FORMAT: FUNCTION
EDGE_WEIGHT_TYPE: EXACT_2D
NODE_COORD_SECTION
1 0.00000 0.00000
2 -22 25
3 -22 25
4 -22 25
5 -22 25
6 -22 25
7 -22 25
8 -44 17
9 -44 17
10 -44 17
11 -44 17
12 -44 17
13 -44 17
14 42 40
15 42 40
16 42 40
17 42 40
18 42 40
19 42 40
20 -5 44
21 -5 44
22 -5 44
23 -5 44
24 27 -3
25 27 -3
26 27 -3
27 27 -3
28 27 -3
29 -25 -46
30 -25 -46
31 -25 -46
32 15 -25
33 15 -25
34 15 -25
35 15 -25
36 15 -25
37 15 -25
38 12 -46
39 12 -46
40 12 -46
41 12 -46
42 8 -20
43 8 -20
44 8 -20
45 8 -20
46 16 -33
47 16 -33
48 16 -33
49 16 -33
50 16 -33
51 40 28
52 40 28
53 40 28
54 40 28
55 -39 34
56 -39 34
57 -39 34
58 -39 34
59 -39 34
60 -3 39
61 -3 39
62 -3 39
63 -3 39
64 -3 39
65 -3 39
66 -34 7
67 -34 7
68 -34 7
69 -34 7
70 9 -31
71 9 -31
72 9 -31
73 -47 7
74 -47 7
75 -47 7
76 -47 7
77 -44 -4
78 -44 -4
79 -44 -4
80 -44 -4
81 -44 -4
82 -38 36
83 -38 36
84 -16 19
85 -16 19
86 -16 19
87 -20 -13
88 -20 -13
89 -20 -13
90 -33 -28
91 -33 -28
92 -33 -28
93 -33 -28
94 3 33
95 3 33
96 3 33
97 3 33
98 3 33
99 42 -44
100 42 -44
101 42 -44
102 42 -44
103 42 -44
104 42 -44
105 -26 11
106 -26 11
107 -26 11
108 26 28
109 26 28
110 26 28
111 2 38
112 2 38
113 2 38
114 2 38
115 2 38
116 39 -19
117 39 -19
118 39 -19
119 39 -19
120 -40 34
121 -40 34
122 -40 34
123 -40 34
124 -46 30
125 -46 30
126 -46 30
127 -46 30
128 -46 30
129 -46 30
130 25 16
131 25 16
132 25 16
133 25 16
134 25 16
135 25 16
136 -4 9
137 -4 9
138 -4 9
139 -4 9
140 -4 9
141 -4 9
142 -4 9
143 -4 9
144 -29 -28
145 -29 -28
146 -29 -28
147 -29 -28
148 -29 -28
149 -29 -28
150 5 -6
151 5 -6
152 5 -6
153 5 -6
154 -41 -1
155 -41 -1
156 -41 -1
157 -41 -1
158 -12 16
159 -12 16
160 -12 16
161 -12 16
162 -16 -39
163 -16 -39
164 -16 -39
165 -16 -39
166 -16 -39
167 -16 -39
168 -16 -39
169 16 -4
170 16 -4
171 16 -4
172 -39 42
173 -39 42
174 -39 42
175 -39 42
176 -39 42
177 -39 42
178 8 37
179 8 37
180 8 37
181 8 37
182 8 37
183 8 37
184 8 37
185 8 37
186 -3 34
187 -3 34
188 -3 34
189 -3 34
190 -3 34
191 -3 34
192 -45 -33
193 -45 -33
194 -45 -33
195 -45 -33
196 -45 -33
197 -4 19
198 -4 19
199 -4 19
200 -6 -48
201 -6 -48
202 -6 -48
203 -6 -48
204 -36 48
205 -36 48
206 -36 48
207 -36 48
208 44 -15
209 44 -15
210 44 -15
211 44 -15
212 44 -15
213 44 -15
214 45 4
215 45 4
216 45 4
217 45 4
218 45 4
219 45 4
220 -43 -30
221 -43 -30
222 2 -23
223 2 -23
224 2 -23
225 2 -23
226 2 -23
227 2 -23
228 2 -23
229 25 37
230 20 21
231 20 21
232 20 21
233 20 21
234 15 -10
235 15 -10
236 15 -10
237 15 -10
238 -44 42
239 -44 42
240 -44 42
241 -44 42
242 -44 42
243 -44 42
244 -44 42
245 -34 19
246 -34 19
247 -34 19
248 -34 19
249 -34 19
250 -34 19
251 -34 19
252 -34 19
253 -47 -13
254 -47 -13
255 -47 -13
256 -47 -13
257 -47 -13
258 -47 -13
259 10 0
260 10 0
261 10 0
262 10 0
263 10 0
264 10 0
265 11 -33
266 11 -33
267 11 -33
268 11 -33
269 11 -33
270 11 -33
271 11 -33
272 -18 -2
273 -18 -2
274 -18 -2
275 -38 -33
276 18 37
277 18 37
278 18 37
279 18 37
280 18 37
281 -28 -20
282 -28 -20
283 -28 -20
284 -28 -20
285 -14 -21
286 -14 -21
287 -14 -21
288 -14 -21
289 16 24
290 16 24
291 16 24
292 16 24
293 34 -46
294 34 -46
295 -25 -3
296 -25 -3
297 -25 -3
298 -25 -3
299 -38 43
300 -38 43
301 -38 43
302 -38 43
303 -38 43
304 -38 43
305 -38 43
306 -3 32
307 -3 32
308 -3 32
309 -3 32
310 -3 32
311 -32 -41
312 -32 -41
313 -32 -41
314 -32 -41
315 -32 -41
316 -32 -41
317 15 4
318 15 4
319 15 4
320 15 4
321 -25 25
322 -25 25
323 -25 25
324 -25 25
325 -25 25
326 -25 25
327 -20 2
328 -20 2
329 -20 2
330 -20 2
331 -20 2
332 1 22
333 1 22
334 1 22
335 1 22
336 1 22
337 1 22
338 17 30
339 17 30
340 17 30
341 17 30
342 6 22
343 6 22
344 6 22
345 6 22
346 -39 6
347 -39 6
348 28 -33
349 28 -33
350 28 -33
351 28 -33
352 28 -33
353 27 -2
354 27 -2
355 27 -2
356 27 -2
357 27 -2
358 -26 6
359 -26 6
360 -26 6
361 -26 6
362 -11 -20
363 -11 -20
364 -11 -20
365 -11 -20
366 -11 -20
367 -11 -20
368 7 40
369 7 40
370 7 40
371 7 40
372 14 -30
373 14 -30
374 14 -30
375 14 -30
376 14 -30
377 14 -30
378 14 -30
379 10 14
380 10 14
381 10 14
382 10 14
383 10 14
384 10 14
385 -7 -43
386 -7 -43
387 -7 -43
388 -39 -17
389 -39 -17
390 -39 -17
391 -39 -17
392 -39 -17
393 -39 -17
394 -2 21
395 -2 21
396 -2 21
397 -2 21
398 -2 21
399 -45 -39
400 -45 -39
401 -17 48
402 -17 48
403 -17 48
404 -17 48
405 -17 48
406 -17 48
407 -41 47
408 -41 47
409 -41 47
410 -41 47
411 -41 47
412 -41 47
413 39 -31
414 39 -31
415 39 -31
416 39 -31
417 39 -31
418 39 -31
419 39 -12
420 39 -12
421 39 -12
422 39 -12
423 30 50
424 30 50
425 30 50
426 23 -30
427 23 -30
428 23 -30
429 23 -30
430 23 -30
431 -37 12
432 -37 12
433 -37 12
434 -37 12
435 -37 12
436 -37 12
437 20 11
438 20 11
439 20 11
440 20 11
441 -43 21
442 -43 21
443 -43 21
444 -4 -40
445 -4 -40
446 -4 -40
447 -4 -40
448 -4 -40
449 -4 -40
450 -25 -33
451 -25 -33
452 -25 -33
453 32 -20
454 32 -20
455 32 -20
456 32 -20
457 32 -20
458 -50 31
459 -50 31
460 -50 31
461 -50 31
462 -50 31
463 -50 31
464 -50 31
465 1 24
466 1 24
467 1 24
468 1 24
469 1 24
470 9 27
471 9 27
472 9 27
473 9 27
474 9 27
475 -11 12
476 -11 12
477 38 25
478 38 25
479 38 25
480 38 25
481 38 25
482 38 25
483 12 -48
484 12 -48
485 12 -48
486 12 -48
487 12 -48
488 12 -48
489 42 22
490 42 22
491 42 22
492 -3 -50
493 -3 -50
494 -3 -50
495 -3 -50
496 11 18
497 11 18
498 11 18
499 11 18
500 11 18
501 11 18
502 -33 -2
503 -33 -2
504 -1 -30
505 -1 -30
506 -1 -30
507 -1 -30
508 -22 -42
509 -22 -42
510 -22 -42
511 -22 -42
512 -22 -42
513 -22 -42
514 -8 45
515 -8 45
516 -8 45
517 -8 45
518 -8 45
519 -8 45
520 -8 45
521 20 32
522 20 32
523 20 32
524 20 32
525 20 32
526 -40 8
527 -40 8
528 -40 8
529 -40 8
530 -40 8
531 0 39
532 0 39
533 0 39
534 0 39
535 0 39
536 40 -41
537 40 -41
538 40 -41
539 40 -41
540 40 -41
541 44 -27
542 44 -27
543 44 -27
544 44 -27
545 44 -27
546 44 -27
547 3 -27
548 3 -27
549 3 -27
550 3 -27
551 -14 6
552 -14 6
553 22 -39
554 22 -39
555 22 -39
556 22 -39
557 22 -39
558 22 -39
559 22 -39
560 30 1
561 30 1
562 30 1
563 30 1
564 -49 47
565 -49 47
566 -49 47
567 -49 47
568 -49 47
569 27 12
570 27 12
571 27 12
572 27 12
573 27 12
574 27 12
575 20 -15
576 20 -15
577 20 -15
578 20 -15
579 20 -15
580 20 -15
581 44 50
582 44 50
583 44 50
584 44 50
585 44 50
586 44 50
587 44 50
588 39 -45
589 39 -45
590 39 -45
591 39 -45
592 39 -45
593 39 -45
594 -46 -39
595 -46 -39
596 -46 -39
597 -46 -39
598 -46 -39
599 -46 -39
600 -46 -39
601 -47 -8
602 -47 -8
603 -47 -8
604 -47 -8
605 -47 -8
606 -47 -8
607 -41 -41
608 -41 -41
609 -41 -41
610 -41 -41
611 -41 -41
612 -41 -41
613 39 8
614 39 8
615 39 8
616 6 17
617 6 17
618 6 17
619 -37 -9
620 -37 -9
621 -37 -9
622 -37 -9
623 -37 -9
624 -37 -9
625 -37 -9
626 -6 48
627 -6 48
628 -6 48
629 -6 48
630 -6 48
631 -6 48
632 -6 48
633 -6 48
634 30 -36
635 30 -36
636 30 -36
637 30 -36
638 30 -36
639 30 -36
640 30 -36
641 17 -29
642 17 -29
643 17 -29
644 20 28
645 20 28
646 -2 9
647 -2 9
648 -2 9
649 -2 9
650 49 16
651 49 16
652 49 16
653 49 16
654 49 16
655 -14 -13
656 -14 -13
657 -14 -13
658 -14 -13
659 -14 -13
660 -14 -13
661 -14 -13
662 -22 43
663 -22 43
664 -22 43
665 9 -12
666 9 -12
667 9 -12
668 9 -12
669 -3 44
670 -3 44
671 -3 44
672 -1 46
673 -1 46
674 -1 46
675 -34 3
676 -34 3
677 -34 3
678 -34 3
679 -34 3
680 13 -27
681 13 -27
682 13 -27
683 13 -27
684 13 -27
685 13 -27
686 14 34
687 14 34
688 14 34
689 14 34
690 14 34
691 10 19
692 10 19
693 10 19
694 10 19
695 10 19
696 10 19
697 -26 -33
698 -26 -33
699 -26 -33
700 -26 -33
701 -26 -33
702 -26 -33
703 -26 -33
704 -25 2
705 -25 2
706 -25 2
707 -25 2
708 -25 2
709 -25 2
710 36 -32
711 36 -32
712 36 -32
713 36 -32
714 36 -32
715 -9 10
716 -9 10
717 -9 10
718 -9 10
719 -9 10
720 38 49
721 38 49
722 38 49
723 38 49
724 38 49
725 38 49
726 -26 24
727 -26 24
728 36 -32
729 36 -32
730 36 -32
731 36 -32
732 36 -32
733 40 32
734 40 32
735 40 32
736 40 32
737 40 32
738 -38 -14
739 -38 -14
740 -38 -14
741 -38 -14
742 -48 32
743 -48 32
744 -48 32
745 33 40
746 33 40
747 33 40
748 33 40
749 33 40
750 33 40
751 -20 41
752 -20 41
753 -20 41
754 -20 41
755 -2 37
756 -2 37
757 -2 37
758 -2 37
759 -2 37
760 -2 37
761 30 -39
762 30 -39
763 -33 49
764 -33 49
765 14 17
766 14 17
767 14 17
768 -4 0
769 -4 0
770 -4 0
771 -4 0
772 -5 -16
773 -5 -16
774 -5 -16
775 -5 -16
776 -5 -16
777 -5 -16
778 -5 -16
779 14 -26
780 14 -26
781 14 -26
782 14 -26
783 14 -26
784 14 -26
785 14 -26
786 14 -26
787 16 -43
788 16 -43
789 16 -43
790 16 -43
791 16 -43
792 -10 19
793 -10 19
794 -10 19
795 -10 19
796 -10 19
797 15 -50
798 15 -50
799 15 -50
800 15 -50
801 39 29
802 39 29
803 39 29
804 39 29
805 -4 -47
806 -4 -47
807 -4 -47
808 -4 -47
809 -4 -47
810 -4 -47
811 -4 -47
812 -37 21
813 -37 21
814 -37 21
815 -37 21
816 -37 21
817 -37 21
818 16 38
819 16 38
820 16 38
821 16 38
822 16 38
823 16 38
824 16 38
825 -50 28
826 -50 28
827 -50 28
828 41 10
829 41 10
830 41 10
831 41 10
832 41 10
833 -29 29
834 -29 29
835 -29 29
836 -29 29
837 -37 25
838 -12 -18
839 -12 -18
840 -12 -18
841 -13 25
842 -13 25
843 -13 25
844 -13 25
845 -13 25
846 -13 25
847 -13 25
848 -13 25
849 49 -8
850 49 -8
851 49 -8
852 49 -8
853 49 -8
854 49 -8
855 49 -8
856 -18 -20
857 -18 -20
858 -18 -20
859 -18 -20
860 8 19
861 8 19
862 -11 -22
863 -11 -22
864 -11 -22
865 -45 18
866 -45 18
867 -45 18
868 -45 18
869 -45 18
870 37 -8
871 37 -8
872 37 -8
873 -26 -42
874 -26 -42
875 -26 -42
876 -26 -42
877 9 37
878 9 37
879 9 37
880 9 37
881 9 37
882 9 37
883 -34 35
884 -34 35
885 -34 35
886 -7 49
887 -7 49
888 -7 49
889 -7 49
890 -7 49
891 -7 49
892 40 -4
893 40 -4
894 40 -4
895 40 -4
896 40 -4
897 -17 -24
898 -17 -24
899 -17 -24
900 -17 -24
901 -17 -24
902 38 48
903 38 48
904 38 48
905 38 48
906 38 48
907 37 -26
908 37 -26
909 37 -26
910 37 -26
911 -10 18
912 -10 18
913 -10 18
914 -10 18
915 -10 18
916 -10 18
917 -10 18
918 33 6
919 33 6
920 33 6
921 33 6
922 33 6
923 -23 5
924 -23 5
925 -23 5
926 -23 5
927 -25 13
928 -25 13
929 -25 13
930 -25 13
931 -25 13
932 -25 13
933 -25 13
934 1 42
935 1 42
936 1 42
937 1 42
938 -17 -18
939 -17 -18
940 -17 -18
941 -17 -18
942 -17 -18
943 -17 -18
944 15 41
945 15 41
946 15 41
947 15 41
948 15 41
949 15 41
950 23 -43
951 23 -43
952 23 -43
953 23 -43
954 23 -43
DEMAND_SECTION
1 0
2 40
3 2
4 2
5 2
6 2
7 1
8 20
9 10
10 2
11 2
12 2
13 1
14 40
15 40
16 2
17 2
18 2
19 2
20 40
21 40
22 10
23 1
24 40
25 10
26 2
27 2
28 2
29 20
30 10
31 1
32 20
33 10
34 2
35 2
36 2
37 2
38 40
39 20
40 10
41 1
42 40
43 40
44 10
45 1
46 40
47 40
48 10
49 2
50 1
51 40
52 10
53 2
54 2
55 40
56 2
57 2
58 2
59 2
60 40
61 40
62 10
63 2
64 2
65 1
66 20
67 2
68 2
69 2
70 40
71 40
72 1
73 40
74 40
75 2
76 1
77 40
78 10
79 2
80 2
81 1
82 20
83 10
84 40
85 40
86 10
87 40
88 2
89 1
90 40
91 40
92 2
93 1
94 20
95 10
96 2
97 2
98 2
99 20
100 2
101 2
102 2
103 2
104 1
105 40
106 40
107 1
108 40
109 20
110 10
111 40
112 20
113 10
114 2
115 1
116 40
117 20
118 2
119 2
120 40
121 40
122 2
123 2
124 40
125 40
126 10
127 2
128 2
129 1
130 20
131 10
132 2
133 2
134 2
135 1
136 40
137 40
138 10
139 2
140 2
141 2
142 2
143 1
144 40
145 2
146 2
147 2
148 2
149 1
150 20
151 10
152 2
153 2
154 40
155 10
156 2
157 1
158 40
159 40
160 2
161 2
162 40
163 40
164 10
165 2
166 2
167 2
168 2
169 40
170 2
171 2
172 40
173 20
174 10
175 2
176 2
177 1
178 40
179 40
180 10
181 2
182 2
183 2
184 2
185 1
186 40
187 40
188 10
189 2
190 2
191 2
192 40
193 10
194 2
195 2
196 2
197 40
198 10
199 2
200 40
201 20
202 10
203 2
204 40
205 40
206 2
207 1
208 40
209 20
210 10
211 2
212 2
213 1
214 40
215 40
216 10
217 2
218 2
219 1
220 40
221 20
222 40
223 40
224 10
225 2
226 2
227 2
228 1
229 40
230 40
231 40
232 10
233 1
234 20
235 10
236 2
237 2
238 40
239 40
240 10
241 2
242 2
243 2
244 1
245 40
246 40
247 10
248 2
249 2
250 2
251 2
252 1
253 40
254 20
255 2
256 2
257 2
258 2
259 20
260 10
261 2
262 2
263 2
264 2
265 40
266 40
267 10
268 2
269 2
270 2
271 2
272 20
273 10
274 2
275 40
276 40
277 40
278 10
279 2
280 2
281 40
282 40
283 10
284 2
285 40
286 40
287 10
288 1
289 40
290 10
291 2
292 1
293 40
294 40
295 40
296 10
297 2
298 1
299 40
300 40
301 2
302 2
303 2
304 2
305 1
306 40
307 2
308 2
309 2
310 2
311 40
312 10
313 2
314 2
315 2
316 2
317 40
318 2
319 2
320 2
321 20
322 2
323 2
324 2
325 2
326 1
327 40
328 40
329 10
330 2
331 2
332 40
333 40
334 10
335 2
336 2
337 1
338 40
339 10
340 2
341 2
342 40
343 20
344 10
345 2
346 40
347 10
348 40
349 40
350 2
351 2
352 2
353 40
354 10
355 2
356 2
357 2
358 40
359 2
360 2
361 2
362 40
363 40
364 2
365 2
366 2
367 1
368 40
369 20
370 2
371 2
372 40
373 40
374 10
375 2
376 2
377 2
378 2
379 20
380 10
381 2
382 2
383 2
384 1
385 40
386 40
387 2
388 40
389 10
390 2
391 2
392 2
393 1
394 20
395 2
396 2
397 2
398 1
399 40
400 10
401 20
402 10
403 2
404 2
405 2
406 1
407 40
408 40
409 2
410 2
411 2
412 1
413 40
414 20
415 2
416 2
417 2
418 1
419 40
420 20
421 2
422 2
423 40
424 2
425 1
426 40
427 40
428 2
429 2
430 2
431 40
432 40
433 2
434 2
435 2
436 2
437 40
438 2
439 2
440 2
441 40
442 40
443 10
444 40
445 40
446 10
447 2
448 2
449 2
450 40
451 10
452 2
453 40
454 20
455 10
456 2
457 2
458 40
459 20
460 10
461 2
462 2
463 2
464 1
465 40
466 2
467 2
468 2
469 2
470 40
471 2
472 2
473 2
474 1
475 20
476 10
477 20
478 10
479 2
480 2
481 2
482 2
483 40
484 20
485 2
486 2
487 2
488 2
489 40
490 40
491 10
492 40
493 2
494 2
495 2
496 20
497 2
498 2
499 2
500 2
501 1
502 40
503 10
504 20
505 10
506 2
507 2
508 40
509 40
510 2
511 2
512 2
513 2
514 40
515 20
516 2
517 2
518 2
519 2
520 1
521 40
522 40
523 10
524 2
525 1
526 40
527 20
528 2
529 2
530 2
531 40
532 40
533 10
534 2
535 2
536 40
537 40
538 2
539 2
540 2
541 40
542 40
543 2
544 2
545 2
546 2
547 40
548 40
549 10
550 1
551 40
552 1
553 40
554 20
555 2
556 2
557 2
558 2
559 1
560 20
561 2
562 2
563 2
564 40
565 40
566 10
567 2
568 1
569 40
570 20
571 10
572 2
573 2
574 1
575 40
576 40
577 2
578 2
579 2
580 1
581 40
582 40
583 10
584 2
585 2
586 2
587 2
588 40
589 20
590 2
591 2
592 2
593 1
594 40
595 40
596 2
597 2
598 2
599 2
600 1
601 40
602 10
603 2
604 2
605 2
606 2
607 20
608 10
609 2
610 2
611 2
612 1
613 40
614 40
615 2
616 40
617 20
618 1
619 40
620 20
621 10
622 2
623 2
624 2
625 1
626 40
627 40
628 10
629 2
630 2
631 2
632 2
633 1
634 40
635 20
636 2
637 2
638 2
639 2
640 1
641 20
642 10
643 1
644 40
645 40
646 20
647 2
648 2
649 1
650 40
651 20
652 2
653 2
654 2
655 40
656 10
657 2
658 2
659 2
660 2
661 1
662 40
663 2
664 1
665 40
666 40
667 10
668 1
669 40
670 40
671 2
672 40
673 2
674 2
675 20
676 2
677 2
678 2
679 2
680 20
681 10
682 2
683 2
684 2
685 1
686 40
687 40
688 10
689 2
690 2
691 20
692 10
693 2
694 2
695 2
696 2
697 40
698 20
699 10
700 2
701 2
702 2
703 2
704 40
705 40
706 10
707 2
708 2
709 1
710 20
711 10
712 2
713 2
714 1
715 40
716 20
717 10
718 2
719 1
720 20
721 10
722 2
723 2
724 2
725 1
726 40
727 10
728 40
729 20
730 2
731 2
732 2
733 40
734 2
735 2
736 2
737 2
738 40
739 40
740 10
741 1
742 40
743 20
744 1
745 40
746 10
747 2
748 2
749 2
750 1
751 40
752 20
753 10
754 2
755 20
756 10
757 2
758 2
759 2
760 1
761 40
762 2
763 40
764 1
765 40
766 20
767 10
768 40
769 20
770 10
771 1
772 20
773 10
774 2
775 2
776 2
777 2
778 1
779 40
780 20
781 10
782 2
783 2
784 2
785 2
786 1
787 40
788 20
789 10
790 2
791 2
792 40
793 20
794 2
795 2
796 1
797 20
798 2
799 2
800 1
801 40
802 20
803 2
804 1
805 40
806 40
807 10
808 2
809 2
810 2
811 2
812 20
813 10
814 2
815 2
816 2
817 2
818 40
819 40
820 2
821 2
822 2
823 2
824 1
825 40
826 20
827 10
828 40
829 40
830 10
831 2
832 1
833 40
834 10
835 2
836 2
837 40
838 40
839 10
840 1
841 40
842 20
843 10
844 2
845 2
846 2
847 2
848 1
849 40
850 40
851 10
852 2
853 2
854 2
855 2
856 20
857 2
858 2
859 1
860 40
861 20
862 40
863 40
864 10
865 40
866 10
867 2
868 2
869 2
870 20
871 10
872 2
873 20
874 2
875 2
876 2
877 40
878 40
879 2
880 2
881 2
882 1
883 40
884 20
885 1
886 20
887 10
888 2
889 2
890 2
891 1
892 40
893 20
894 10
895 2
896 1
897 40
898 2
899 2
900 2
901 2
902 40
903 40
904 10
905 2
906 2
907 40
908 10
909 2
910 1
911 40
912 20
913 2
914 2
915 2
916 2
917 1
918 40
919 40
920 2
921 2
922 1
923 20
924 10
925 2
926 1
927 40
928 20
929 10
930 2
931 2
932 2
933 1
934 20
935 10
936 2
937 1
938 40
939 10
940 2
941 2
942 2
943 1
944 20
945 2
946 2
947 2
948 2
949 1
950 40
951 2
952 2
953 2
954 1
DEPOT_SECTION
1
-1
EOF