SDVRP instances/custom_instances/p10_15_split0.sol
953 -22 19 630 626 627 632 631 628 629 625 886 887 890 888 885 889 514 517 -32 34 782 779 780 784 783 785 781 641 642 640 46 45 48 49 47 373 377 375 680 -43 41 42 44 778 35 31 33 36 664 -57 81 173 298 301 203 206 205 204 762 763 845 -60 63 62 668 669 670 20 21 396 393 -68 67 66 65 433 430 435 431 247 250 244 245 248 930 929 -69 71 70 269 270 265 267 268 264 684 683 682 679 681 -82 241 237 240 243 238 239 242 565 566 567 563 564 -88 87 86 387 390 388 389 391 392 739 738 740 737 623 622 -95 93 112 113 111 110 114 532 533 531 534 530 465 468 467 336 -97 94 96 184 178 183 180 177 182 181 179 880 877 878 881 876 879 -120 121 122 119 58 56 54 55 882 883 833 -123 124 128 125 126 127 741 743 742 836 -134 129 131 133 132 130 570 569 573 568 571 572 921 918 356 355 352 -138 141 913 915 916 912 914 910 911 792 793 794 791 795 159 157 474 -139 142 841 842 840 843 844 846 847 83 84 158 -140 137 196 198 197 466 464 331 332 335 334 333 -145 148 144 609 611 608 610 606 607 399 398 593 598 594 596 595 599 597 282 283 -146 147 143 274 195 194 193 191 192 219 220 -150 149 151 665 667 666 775 776 771 777 284 285 286 287 -152 351 350 349 637 634 633 639 636 635 638 292 293 761 760 -160 85 4 3 1 2 5 6 321 322 323 325 324 320 834 835 832 725 726 475 718 717 -161 163 167 165 164 162 166 508 511 509 28 29 30 872 875 873 874 -170 169 168 354 353 26 27 25 23 24 575 578 576 574 577 579 -210 208 211 212 209 207 117 116 115 118 452 454 455 -227 224 225 222 221 226 223 547 546 549 548 -229 231 230 437 438 436 439 317 319 316 258 -232 107 109 108 746 744 747 748 749 228 521 524 -233 234 426 425 429 427 428 372 374 371 376 -236 235 544 542 545 540 541 543 415 412 413 417 416 414 728 709 -246 249 251 824 826 825 459 462 463 460 457 458 461 812 814 816 811 813 815 -260 261 262 259 263 920 919 917 612 831 830 829 827 828 318 -266 788 787 786 790 789 950 951 953 949 952 553 558 557 555 552 556 554 -277 278 424 423 422 722 721 720 723 724 719 905 903 904 901 902 745 -279 275 276 818 821 822 823 820 817 819 945 946 944 943 948 947 -280 281 89 90 92 91 700 697 699 450 451 -289 290 291 288 686 687 685 688 689 471 470 469 473 472 -302 299 300 303 304 407 406 411 409 410 408 176 174 171 172 175 884 -308 189 190 64 61 59 673 671 672 934 933 936 935 367 368 370 369 -330 329 705 674 675 677 678 676 154 156 153 155 79 76 78 80 77 501 502 -338 337 340 339 520 522 523 643 644 379 -346 345 72 75 73 74 528 525 526 529 527 -347 348 727 731 729 906 908 909 907 453 456 -359 358 360 357 104 106 105 926 932 931 927 928 -366 361 362 363 365 364 862 861 863 772 773 774 -381 382 383 378 380 764 766 765 499 495 496 497 498 500 693 695 694 692 690 691 -386 385 384 200 201 199 202 493 494 492 491 -394 395 397 757 755 756 759 758 754 186 188 187 185 309 305 306 307 645 -419 418 421 420 848 854 851 853 850 849 852 870 871 869 -442 440 441 865 866 867 868 864 7 8 9 12 11 10 434 432 925 923 -447 446 443 448 445 444 804 806 805 809 807 810 808 -449 702 696 698 701 313 310 315 314 311 312 512 507 510 -476 477 50 52 53 51 732 735 736 733 734 803 800 801 802 -479 481 478 480 16 17 13 18 15 14 583 584 580 582 581 585 586 -488 489 490 650 652 649 651 653 613 614 -505 506 503 504 39 37 40 38 484 486 482 483 485 487 799 796 797 798 -515 513 516 518 519 400 401 405 404 403 402 661 662 663 753 750 751 752 -551 550 328 327 326 271 272 273 770 768 769 -559 560 561 562 214 215 216 217 218 213 891 895 894 893 892 -592 588 591 589 587 590 98 99 103 102 100 101 535 539 536 537 538 713 730 711 712 710 -605 600 603 602 604 601 255 253 252 254 256 257 619 620 621 624 618 -617 615 616 343 342 344 341 859 860 -647 648 646 136 135 716 714 715 767 -654 296 297 295 294 706 708 703 704 707 922 924 -656 655 658 657 659 660 941 937 942 939 940 938 855 857 858 856 900 896 898 899 897 838 839 837 0 





OBJ=
5817.142
BEST_KNOWN=
0.000